c ! encoding i-pc 250
p cnf 601 1178
-251 0
251 -252 0
251 -253 0
251 -254 0
251 -255 0
251 -256 0
251 -257 0
251 -258 0
244 -259 0
181 -259 0
260 0
261 -262 0
262 -263 0
-181 -263 0
259 263 -264 0
265 -266 0
266 -267 0
25 -267 0
-235 -268 0
-25 -268 0
267 268 -269 0
264 -270 0
269 -270 0
270 -271 0
13 -271 0
235 -272 0
244 -272 0
272 -274 0
273 -274 0
274 -275 0
-13 -275 0
271 275 -276 0
-125 -277 0
207 -277 0
278 -279 0
279 -280 0
-207 -280 0
277 280 -281 0
-109 -282 0
189 -282 0
283 -284 0
284 -285 0
-189 -285 0
282 285 -286 0
-26 -287 0
-39 -287 0
-64 -287 0
98 -287 0
136 -287 0
154 -287 0
157 -287 0
-174 -287 0
187 -287 0
193 -287 0
-199 -287 0
276 -289 0
281 -289 0
286 -289 0
287 -289 0
288 -289 0
289 -290 0
243 -290 0
269 -291 0
13 -291 0
235 -292 0
292 -293 0
-13 -293 0
291 293 -294 0
286 -295 0
187 -295 0
109 -296 0
296 -297 0
-187 -297 0
295 297 -298 0
298 -299 0
174 -299 0
286 -300 0
187 -300 0
300 -301 0
-174 -301 0
299 301 -302 0
193 -303 0
244 -303 0
294 -304 0
302 -304 0
303 -304 0
304 -305 0
181 -305 0
269 -306 0
261 -306 0
306 -307 0
13 -307 0
272 -308 0
-13 -308 0
307 308 -309 0
286 -310 0
193 -310 0
310 -311 0
187 -311 0
296 -313 0
312 -313 0
313 -314 0
-187 -314 0
311 314 -315 0
315 -316 0
174 -316 0
187 -317 0
193 -317 0
286 -318 0
317 -318 0
318 -319 0
-174 -319 0
316 319 -320 0
309 -321 0
320 -321 0
321 -322 0
-181 -322 0
305 322 -323 0
123 -324 0
-154 -324 0
324 -325 0
199 -325 0
154 -326 0
288 -326 0
326 -327 0
-199 -327 0
325 327 -328 0
-64 -329 0
136 -329 0
157 -329 0
328 -330 0
281 -330 0
329 -330 0
330 -331 0
98 -331 0
64 -332 0
-123 -332 0
154 -332 0
-157 -332 0
-199 -332 0
-207 -332 0
332 -333 0
278 -333 0
333 -335 0
334 -335 0
335 -336 0
-98 -336 0
331 336 -337 0
323 -338 0
337 -338 0
39 -338 0
338 -339 0
26 -339 0
298 -340 0
39 -340 0
340 -341 0
174 -341 0
286 -342 0
187 -342 0
342 -344 0
343 -344 0
344 -345 0
-174 -345 0
341 345 -346 0
346 -347 0
276 -347 0
347 -348 0
193 -348 0
39 -349 0
109 -349 0
174 -349 0
-181 -349 0
-187 -349 0
309 -350 0
349 -350 0
350 -351 0
-193 -351 0
348 351 -352 0
-64 -353 0
98 -353 0
136 -353 0
157 -353 0
352 -354 0
328 -354 0
281 -354 0
353 -354 0
354 -355 0
-26 -355 0
339 355 -356 0
356 -357 0
-243 -357 0
290 357 -358 0
359 -360 0
360 -361 0
69 -361 0
-248 -362 0
-69 -362 0
361 362 -363 0
358 -364 0
363 -364 0
364 -366 0
365 -366 0
366 -367 0
14 -367 0
264 -368 0
265 -368 0
368 -369 0
13 -369 0
235 -370 0
244 -370 0
370 -371 0
273 -371 0
371 -372 0
-13 -372 0
369 372 -373 0
373 -374 0
281 -374 0
286 -374 0
287 -374 0
288 -374 0
374 -375 0
243 -375 0
373 -376 0
302 -376 0
376 -377 0
193 -377 0
265 -378 0
261 -378 0
378 -379 0
13 -379 0
370 -380 0
-13 -380 0
379 380 -381 0
109 -382 0
174 -382 0
-181 -382 0
-187 -382 0
381 -383 0
382 -383 0
383 -384 0
-193 -384 0
377 384 -385 0
-64 -386 0
98 -386 0
136 -386 0
281 -387 0
386 -387 0
288 -387 0
387 -388 0
157 -388 0
64 -389 0
-98 -389 0
-123 -389 0
-207 -389 0
334 -390 0
278 -390 0
389 -391 0
390 -391 0
391 -392 0
-157 -392 0
388 392 -393 0
385 -394 0
393 -394 0
39 -394 0
394 -395 0
26 -395 0
346 -396 0
373 -396 0
396 -397 0
193 -397 0
381 -398 0
349 -398 0
398 -399 0
-193 -399 0
397 399 -400 0
400 -401 0
281 -401 0
353 -401 0
288 -401 0
401 -402 0
-26 -402 0
395 402 -403 0
-154 -404 0
199 -404 0
154 -405 0
-199 -405 0
404 405 -406 0
403 -407 0
406 -407 0
407 -408 0
-243 -408 0
375 408 -409 0
25 -410 0
-159 -410 0
-248 -410 0
409 -412 0
410 -412 0
411 -412 0
412 -413 0
-14 -413 0
415 -416 0
416 -418 0
417 -418 0
418 -419 0
162 -419 0
99 -420 0
421 -422 0
422 -423 0
-99 -423 0
420 423 -424 0
424 -425 0
-242 -425 0
425 -426 0
-162 -426 0
-2 -428 0
-4 -428 0
21 -428 0
145 -428 0
-147 -428 0
149 -428 0
166 -428 0
429 -433 0
430 -433 0
431 -433 0
432 -433 0
414 -434 0
427 -434 0
433 -434 0
251 -440 0
73 -458 0
251 -459 0
251 -460 0
251 -461 0
251 -462 0
251 -463 0
464 -465 0
465 -466 0
145 -466 0
26 -468 0
467 -468 0
468 -469 0
-145 -469 0
466 469 -470 0
-21 -471 0
16 -471 0
472 -473 0
473 -474 0
-16 -474 0
471 474 -475 0
-2 -476 0
-4 -476 0
39 -476 0
147 -476 0
161 -476 0
470 -477 0
475 -477 0
476 -477 0
477 -478 0
166 -478 0
21 -479 0
479 -480 0
4 -480 0
475 -481 0
-4 -481 0
480 481 -482 0
470 -483 0
482 -483 0
483 -484 0
39 -484 0
4 -485 0
21 -485 0
-26 -485 0
485 -486 0
-39 -486 0
484 486 -487 0
-2 -488 0
161 -488 0
489 -490 0
490 -491 0
-161 -491 0
488 491 -492 0
492 -493 0
147 -493 0
2 -494 0
-161 -494 0
494 -495 0
-147 -495 0
493 495 -496 0
487 -497 0
496 -497 0
497 -498 0
-166 -498 0
478 498 -499 0
149 -500 0
499 -501 0
500 -501 0
501 -502 0
124 -502 0
-2 -503 0
147 -503 0
161 -503 0
503 -505 0
504 -505 0
505 -506 0
166 -506 0
-2 -507 0
507 -508 0
504 -508 0
508 -509 0
161 -509 0
489 -510 0
510 -511 0
149 -511 0
512 -513 0
513 -514 0
2 -514 0
-2 -515 0
514 515 -516 0
516 -517 0
-149 -517 0
511 517 -518 0
518 -519 0
-161 -519 0
509 519 -520 0
520 -521 0
147 -521 0
2 -522 0
-161 -522 0
522 -523 0
504 -523 0
523 -524 0
-147 -524 0
521 524 -525 0
525 -526 0
-166 -526 0
506 526 -527 0
-4 -528 0
39 -528 0
470 -529 0
527 -529 0
475 -529 0
528 -529 0
529 -530 0
-124 -530 0
532 -533 0
533 -534 0
5 -534 0
-5 -535 0
13 -537 0
25 -537 0
69 -537 0
98 -537 0
109 -537 0
136 -537 0
181 -537 0
193 -537 0
244 -537 0
538 -548 0
359 -548 0
539 -548 0
415 -548 0
430 -548 0
540 -548 0
541 -548 0
542 -548 0
543 -548 0
265 -548 0
544 -548 0
545 -548 0
546 -548 0
547 -548 0
531 -549 0
536 -549 0
548 -549 0
251 -551 0
251 -555 0
251 -559 0
251 -562 0
-64 -564 0
123 -564 0
-154 -564 0
-199 -564 0
242 -564 0
-243 -564 0
-125 -568 0
174 -568 0
-187 -568 0
157 -572 0
207 -572 0
159 -576 0
251 -579 0
251 -582 0
251 -585 0
-73 -594 0
595 -596 0
251 -597 0
251 -600 0
-7 0
-8 0
9 0
15 0
19 0
20 0
-22 0
-23 0
-27 0
30 0
-31 0
-33 0
34 0
36 0
38 0
-41 0
-43 0
44 0
46 0
49 0
54 0
58 0
-59 0
-60 0
-61 0
63 0
-65 0
67 0
-74 0
-76 0
-86 0
88 0
89 0
-90 0
-92 0
-93 0
-94 0
96 0
-101 0
-103 0
104 0
105 0
-106 0
-108 0
111 0
112 0
113 0
-115 0
120 0
121 0
126 0
-130 0
132 0
134 0
-137 0
138 0
-139 0
141 0
-142 0
-143 0
150 0
-151 0
-153 0
-164 0
167 0
168 0
170 0
-171 0
-173 0
-178 0
-182 0
185 0
-186 0
-188 0
191 0
192 0
-194 0
195 0
-196 0
-198 0
-200 0
-201 0
202 0
-209 0
210 0
212 0
-213 0
217 0
218 0
221 0
-223 0
225 0
226 0
228 0
-230 0
-231 0
-232 0
233 0
234 0
-236 0
240 0
-241 0
247 0
249 0
250 0
66 600 0
-599 601 0
102 597 0
-596 598 0
-592 593 0
-591 592 0
-590 591 0
-583 584 0
-152 581 0
-580 581 0
-56 578 0
-577 578 0
160 576 0
118 576 0
-574 575 0
-572 573 0
135 572 0
119 572 0
-571 573 0
-570 571 0
-569 570 0
-568 569 0
238 568 0
216 568 0
211 568 0
176 568 0
172 568 0
146 568 0
110 568 0
107 568 0
91 568 0
72 568 0
-71 568 0
47 568 0
-42 568 0
-566 567 0
229 564 0
-215 564 0
-573 574 0
-203 564 0
177 564 0
148 564 0
-131 564 0
83 564 0
-78 564 0
-77 564 0
62 564 0
48 564 0
28 564 0
-10 564 0
-563 565 0
-561 563 0
-560 561 0
-66 599 0
-558 560 0
-557 558 0
-556 557 0
32 555 0
-554 556 0
-553 554 0
-552 553 0
-547 548 0
-545 548 0
169 545 0
-544 548 0
-567 569 0
70 543 0
-542 548 0
175 542 0
-584 586 0
79 541 0
-540 548 0
-35 540 0
-539 548 0
-222 539 0
-538 548 0
246 538 0
-537 549 0
-543 548 0
206 537 0
-197 537 0
190 537 0
183 537 0
179 537 0
158 537 0
155 537 0
-140 537 0
133 537 0
-549 550 0
129 537 0
-116 537 0
-97 537 0
82 537 0
-57 537 0
-55 537 0
52 537 0
-50 537 0
-37 537 0
-29 537 0
-24 537 0
-6 537 0
-3 537 0
-535 536 0
5 535 0
-534 536 0
-533 534 0
-532 533 0
122 532 0
-531 549 0
-530 531 0
-529 530 0
-528 529 0
-527 529 0
-524 525 0
-521 525 0
-519 520 0
-518 519 0
-117 550 0
-517 518 0
-516 517 0
-245 537 0
-515 516 0
53 572 0
-514 516 0
-513 514 0
-511 518 0
-510 511 0
-508 509 0
-507 508 0
-1 537 0
-506 527 0
-505 506 0
-504 505 508 523 0
149 504 517 0
-503 505 0
-502 531 0
-124 502 0
-500 501 0
-499 501 0
-498 499 0
166 498 526 0
-497 498 0
-495 496 0
-494 495 0
-576 577 0
-488 492 0
6 428 0
2 428 476 488 489 503 507 515 0
-381 383 398 0
-443 444 0
-423 424 0
-421 422 0
-359 360 548 0
-199 325 404 0
-420 424 0
37 428 0
-419 427 0
203 428 0
18 428 0
99 415 423 0
-13 271 291 307 369 379 537 0
-99 415 420 0
-408 409 0
-407 408 0
-404 406 0
-98 287 331 353 386 537 0
-403 407 0
-406 407 0
-306 307 0
-402 403 0
-401 402 0
131 428 0
-394 395 0
-455 456 0
-393 394 0
-81 568 0
-386 387 0
-526 527 0
-62 428 0
-384 385 0
-445 447 0
-2 489 494 514 522 0
-380 381 0
16 428 474 479 485 0
-578 580 0
-379 381 0
-243 290 375 0
-374 375 0
-395 403 0
-409 412 0
-155 428 0
-373 374 376 396 0
-372 373 0
-371 372 0
-102 596 0
-424 425 0
-370 371 380 0
-324 325 0
-418 419 0
-369 373 0
-14 367 572 0
-366 367 0
-349 350 398 0
-364 366 0
109 282 283 0
-322 323 0
-367 414 0
161 432 491 494 519 522 0
-360 361 0
-305 323 0
-363 364 0
-261 262 306 378 0
-414 434 0
-378 379 0
-354 355 0
-352 354 0
-351 352 0
-68 461 0
-348 352 0
-346 347 396 0
-477 478 0
127 512 0
-345 346 0
243 357 408 564 0
-343 344 0
50 428 0
-340 341 0
-83 428 0
-165 421 0
-438 439 0
-335 336 0
-207 277 572 0
-436 437 0
-399 400 0
-187 287 295 300 311 317 342 0
24 428 0
-433 434 0
-437 438 0
-334 335 390 0
-435 436 0
136 334 0
-333 335 0
-332 333 0
-125 278 0
187 297 314 349 382 568 0
-25 267 272 292 410 537 0
125 277 278 568 0
-400 401 0
21 471 472 0
-301 302 0
-189 282 0
98 336 389 0
-318 319 0
-356 357 0
-344 345 0
-548 549 0
-280 281 0
-284 285 0
-146 428 0
-388 393 0
-183 428 0
-581 583 0
207 280 332 389 0
-270 271 0
-248 359 0
-282 286 0
-279 280 0
84 428 0
-177 428 0
-281 289 330 354 374 387 401 0
-341 346 0
-268 269 0
42 428 0
-434 435 0
25 268 0
-412 413 0
-470 477 483 529 0
-444 445 0
-293 294 0
-303 304 0
-396 397 0
-309 321 350 0
-350 351 0
-227 252 460 0
-220 557 0
11 428 0
-300 301 0
-496 497 0
-260 262 266 279 284 360 378 422 473 490 513 533 0
-315 316 0
-411 412 0
69 362 411 0
-339 356 0
-327 328 0
163 537 0
-417 418 0
-271 276 0
-156 256 584 0
13 275 293 308 372 380 0
-235 265 272 292 370 0
-288 289 326 374 387 401 0
199 287 327 332 405 564 0
-107 428 0
-266 267 0
189 285 296 349 382 537 0
224 537 0
-486 487 0
-422 423 0
-276 289 347 0
-208 254 0
-446 447 0
-273 274 371 0
-285 286 0
55 428 0
-216 428 0
75 564 0
-382 383 0
56 442 579 0
-416 418 0
-239 253 459 0
-149 428 500 504 511 0
-295 298 0
-313 314 0
-181 259 273 305 537 0
-451 452 0
244 261 0
-5 428 534 0
57 428 0
-136 287 329 334 353 386 537 0
-320 321 0
-358 364 0
-541 548 0
1 428 0
123 288 332 389 0
-431 433 0
-410 412 0
-259 264 0
-329 330 0
-427 434 0
26 287 355 402 464 485 0
-397 400 0
-244 259 261 272 303 370 537 0
-307 309 0
-342 344 0
-52 428 0
-501 502 0
-326 327 0
-368 369 0
-275 276 0
181 263 273 322 349 382 0
-286 289 295 300 310 318 342 374 0
-39 338 340 343 349 394 476 484 528 0
-278 279 333 390 0
-520 521 0
64 287 329 353 386 564 0
-265 266 368 378 548 0
174 287 301 319 345 0
-82 428 0
235 265 268 0
-262 263 0
140 428 0
-385 394 0
-452 453 0
-447 448 0
-383 384 0
-357 358 0
100 559 0
-319 320 0
39 287 343 486 0
-154 287 326 332 405 0
-40 255 0
-157 287 329 353 388 572 0
-475 477 481 529 0
-204 257 463 0
-269 270 291 306 0
-310 311 0
-405 406 0
-361 363 0
-26 339 395 464 468 0
-287 289 374 0
-123 288 324 564 0
-206 428 0
-272 274 308 0
80 537 0
-390 391 0
-162 419 568 0
-321 322 0
-323 338 0
-316 320 0
14 413 0
-362 363 0
197 428 0
-415 416 548 0
114 568 0
-512 513 0
-174 299 316 341 349 382 568 0
-283 284 0
81 428 0
-64 332 389 0
4 428 476 481 528 0
-291 294 0
-389 391 0
-523 524 0
-180 462 0
215 428 0
-292 293 0
87 537 0
-294 304 0
-353 354 401 0
-296 297 313 0
-312 313 0
-297 298 0
-298 299 340 0
248 359 362 410 0
-387 388 0
-314 315 0
193 312 351 384 399 0
-317 318 0
-193 287 303 310 312 317 348 377 397 537 0
-355 356 0
45 568 0
-328 330 354 0
162 426 0
-487 497 0
-302 304 376 0
-304 305 0
-289 290 0
-95 544 0
-365 366 0
-483 484 0
154 324 404 564 0
-425 426 0
-330 331 0
-263 264 0
-311 315 0
157 332 392 0
-465 466 0
-375 409 0
29 428 0
237 428 0
-238 428 0
-267 269 0
-588 589 0
-391 392 0
-45 428 0
-47 428 0
-48 428 0
-53 428 0
184 546 0
-429 433 0
-587 588 0
-264 270 368 0
71 428 0
-72 428 0
-575 577 0
-75 428 0
77 428 0
-546 548 0
78 428 0
-377 385 0
-277 281 0
-80 428 0
-179 428 0
-87 428 0
-522 523 0
-448 449 0
-91 428 0
97 428 0
-190 428 0
-4 480 485 0
-338 339 0
-376 377 0
-114 428 0
116 428 0
117 428 551 0
-118 428 0
-16 471 0
-11 537 0
-17 258 561 0
-128 428 0
220 428 0
-457 458 0
-536 549 0
-129 428 0
-133 428 0
-550 552 0
-18 537 0
-135 428 0
-290 358 0
-586 588 0
147 428 495 524 0
10 428 0
-148 428 0
-160 428 0
-163 428 0
-325 328 0
-166 428 478 506 0
-172 428 0
-442 443 0
-449 451 0
-176 428 0
-336 337 0
-509 520 0
-525 526 0
-476 477 0
-565 566 0
-564 565 0
-205 428 465 467 485 0
-211 428 0
-589 590 0
-392 393 0
-12 537 0
-471 475 0
-479 480 0
-493 496 0
-229 428 0
-484 487 0
-489 490 510 0
245 428 0
-428 434 0
-492 493 0
144 429 0
-299 302 0
-28 446 0
-51 430 0
51 430 0
-161 432 476 488 503 509 0
-432 433 0
-456 457 0
128 572 0
-347 348 0
17 435 562 0
-85 439 0
-331 337 0
-110 428 0
-439 441 0
-398 399 0
85 440 591 0
-337 338 0
-441 443 0
3 442 0
-593 594 0
145 469 0
-224 428 0
-308 309 0
12 442 0
-274 275 0
205 467 0
152 442 582 0
-468 469 0
156 444 585 0
-138 450 587 0
-450 451 0
-453 454 0
-119 428 0
-454 455 0
-482 483 0
-84 568 0
-464 465 0
-466 470 0
214 547 0
-467 468 0
-469 470 0
-472 473 0
-473 474 0
-219 431 0
-474 475 0
-147 476 493 503 521 0
-237 537 0
-478 499 0
-480 482 0
-481 482 0
-485 486 0
-490 491 0
-158 428 0
-491 492 0
